c User generated cnf file
p cnf 12 30
8 4 -6 0 
-4 5 2 0 
-6 9 7 0 
-6 11 4 0 
-8 2 5 0 
7 11 -12 0 
-4 1 9 0 
1 7 -11 0 
-3 3 4 0 
6 11 -10 0 
2 -9 6 0 
4 -10 8 0 
4 -3 11 0 
3 -3 2 0 
-8 1 5 0 
10 -7 4 0 
-5 3 9 0 
-1 5 1 0 
7 -3 9 0 
10 -3 5 0 
7 -3 3 0 
8 2 -12 0 
8 -7 2 0 
6 6 -10 0 
1 11 -2 0 
1 -1 5 0 
7 12 -3 0 
1 11 -7 0 
1 3 -9 0 
1 10 -1 0 
